DATASET = "thpack8";
INSTANCE = "011";

WIDTH = 2400;
HEIGHT = 1000;
LENGTH = 3000;

NO_OF_SHAPES = 6;
size = [|
  300,300,300 |
  400,400,200 |
  1000,350,225 |
  500,500,275 |
  700,250,225 |
  800,300,250 |
|];

verticality = [|
  0,0,1 |
  0,0,1 |
  0,0,1 |
  0,0,1 |
  0,0,1 |
  0,0,1 |
|];

box_count = [
  27,
  25,
  9,
  19,
  13,
  7,
];
